c Reshuffling of:
c
c Subset cardinality formula for graph
p cnf 125 510
55 -73 -66 0
122 -119 -15 0
-92 -46 63 0
-28 -114 -72 0
-40 63 116 0
-108 110 -69 0
36 -114 -72 0
88 67 28 0
8 89 101 0
6 9 75 0
11 -30 -74 0
8 -10 71 0
9 -65 -3 0
-101 86 78 0
56 35 -113 0
-49 99 -79 0
1 -37 -81 0
16 -14 35 0
-9 -83 3 0
-81 18 44 0
22 108 -40 0
-103 20 -125 0
-124 41 -36 0
-104 -42 57 27 0
45 -51 -29 0
120 78 13 0
50 -94 -34 0
-67 117 -28 0
-56 -35 113 0
-100 -52 102 0
71 -117 -65 0
-9 -83 65 0
104 -29 -27 0
84 -61 -107 0
122 -58 -15 0
-7 13 -106 0
40 -63 -116 0
-120 -13 -32 0
-46 -124 41 0
76 -70 -23 0
-89 -77 85 0
15 -30 47 0
90 94 118 0
-39 -69 86 0
-60 25 33 0
21 -67 -105 0
62 -12 -39 0
-54 -115 16 0
-104 -42 29 57 0
-2 -98 -12 0
-88 -67 -28 0
42 -57 -27 0
55 -73 -87 0
108 -4 -40 0
-64 -110 7 0
-6 92 123 0
-22 10 -71 0
64 -77 110 0
64 -77 -7 0
-58 87 17 0
-123 -97 -49 0
-8 10 -71 0
61 107 -48 0
75 -91 72 0
7 -53 106 0
74 -33 26 0
58 -87 14 0
11 -30 64 0
1 80 -81 0
-54 -49 99 0
-2 -98 55 0
62 -12 -56 0
104 42 -57 0
99 59 -103 0
-60 33 68 0
-93 -94 -118 0
46 124 36 0
4 32 113 0
-100 97 -76 0
-74 -66 33 0
96 31 -125 0
74 66 26 0
-22 -8 -71 0
-79 -27 -38 0
-76 57 23 0
-19 98 -120 0
36 -28 -72 0
84 -61 48 0
15 47 62 0
-102 -91 72 0
-62 12 56 0
-110 69 -50 0
6 -92 96 0
-38 82 114 0
-109 45 5 0
1 -9 -75 0
-99 -59 103 0
-54 99 -79 0
84 -107 48 0
-119 -79 -38 0
111 93 88 0
76 -70 -57 0
-70 -57 -23 0
31 -125 -24 0
-62 39 56 0
-1 37 81 0
-5 53 107 0
-40 105 116 0
-16 23 -35 0
42 -29 -57 0
85 3 -116 0
-52 -42 102 0
121 20 -91 0
-6 123 -96 0
89 77 111 0
50 -34 -83 0
-64 77 -110 0
-41 -59 103 0
123 49 95 0
-4 -32 -113 0
90 93 118 0
-43 -34 21 0
112 21 -67 0
19 -98 115 0
-119 -27 -38 0
53 25 107 0
-111 -93 -88 0
95 44 -17 0
118 121 -91 0
-54 -109 -115 0
122 100 52 -102 0
-6 1 -9 0
118 20 -91 0
-56 113 -48 0
-22 -108 40 0
45 73 -29 0
11 -104 -84 0
-10 -124 43 0
9 83 -65 0
-111 -37 -93 0
-11 30 -64 0
-122 -100 102 0
-25 -33 -68 0
41 59 -103 0
88 67 -117 0
-2 55 -12 0
102 91 -72 0
-74 33 -26 0
81 -44 82 0
-55 73 66 0
-14 -23 35 0
112 -67 -105 0
-59 18 51 0
-106 117 65 0
-52 -59 18 0
122 52 42 -102 0
-7 53 -106 0
-92 -123 96 0
16 -23 35 0
85 68 -116 0
54 -99 79 0
-61 -107 48 0
83 -65 -3 0
1 80 -37 0
-85 -3 116 0
45 -51 73 0
41 99 59 0
-50 94 83 0
-55 73 87 0
43 34 31 0
82 -24 114 0
80 -37 -81 0
-60 25 68 0
-55 87 66 0
118 121 20 0
-89 -77 -111 0
-122 -42 102 0
-58 87 -14 0
11 64 -74 0
-112 -21 67 0
47 -45 -5 0
-12 -39 -56 0
4 -26 113 0
122 -119 -58 0
52 59 -18 0
-22 -108 4 0
73 87 66 0
-121 -20 91 0
-44 121 17 0
-62 12 39 0
39 -86 60 0
100 52 42 -102 0
92 46 -63 0
6 -92 -123 0
124 -41 36 0
86 78 112 0
-84 61 107 0
-74 -66 -26 0
76 -57 -23 0
-77 -111 85 0
-45 51 29 0
-10 -80 43 0
-88 -67 117 0
7 -13 106 0
10 124 -43 0
120 78 32 0
59 -18 -51 0
-108 -69 50 0
22 -10 71 0
119 79 38 0
-96 -31 125 0
95 44 -121 0
46 -90 -63 0
43 -21 31 0
90 93 94 0
103 -20 125 0
119 79 27 0
-7 13 53 0
92 -90 -63 0
-9 65 3 0
12 39 56 0
-111 -37 -88 0
-70 -103 20 0
38 -82 -114 0
54 49 79 0
-71 117 65 0
98 -55 12 0
104 42 -29 0
34 -21 31 0
54 115 -16 0
-42 29 57 27 0
22 -4 -40 0
-34 21 -31 0
-29 -57 -27 0
-122 -52 -42 0
6 -1 75 0
-45 51 -73 0
-104 29 57 27 0
97 -2 -76 0
-6 1 -75 0
92 46 -90 0
-122 119 58 0
56 -113 48 0
-122 -100 -52 0
-36 28 72 0
66 -33 26 0
104 42 -27 0
-30 64 -74 0
10 80 -43 0
-112 -21 105 0
89 77 -85 0
46 -41 36 0
-95 121 17 0
109 -45 -5 0
52 59 -51 0
88 -117 28 0
77 -110 7 0
119 27 38 0
60 -25 -33 0
22 8 -10 0
-6 92 -96 0
101 -78 -112 0
111 37 88 0
-56 -35 -48 0
120 13 32 0
-11 -19 84 0
-63 -105 -116 0
-81 18 -82 0
30 -64 74 0
2 -55 12 0
11 19 -84 0
46 124 -41 0
-81 44 -82 0
-100 -42 102 0
-122 58 15 0
87 17 -14 0
58 -17 14 0
7 -13 -53 0
2 98 12 0
-46 -124 -36 0
96 -125 -24 0
-45 -73 29 0
-95 -44 121 0
18 44 -82 0
100 -97 2 0
-118 -20 91 0
-89 -101 61 0
93 94 118 0
-96 -31 24 0
64 110 -7 0
-43 21 -31 0
-39 86 -60 0
-43 -34 -31 0
-46 90 63 0
81 -18 -44 0
95 -121 -17 0
-97 -49 -95 0
108 -110 -50 0
8 101 -61 0
47 109 -45 0
-92 -46 90 0
13 53 -106 0
77 111 -85 0
56 35 48 0
-98 55 -12 0
44 -121 -17 0
-71 -106 117 0
-39 -69 -60 0
38 -82 24 0
74 66 -33 0
-100 -52 -42 0
110 -69 50 0
108 69 -50 0
-52 -59 51 0
-120 -78 -32 0
19 -104 -84 0
75 -102 72 0
-1 -80 37 0
119 58 15 0
70 103 -20 0
-41 -99 -59 0
15 -30 62 0
71 106 -65 0
50 -94 -83 0
42 -29 -27 0
94 34 83 0
-97 2 76 0
-13 -53 106 0
-11 -19 104 0
-92 90 63 0
-54 -109 16 0
11 19 -104 0
-76 70 57 0
-53 -25 -107 0
51 -73 29 0
-8 -89 -101 0
22 108 -4 0
68 3 -116 0
-119 -79 -27 0
-119 -58 -15 0
-4 -32 26 0
-8 -101 61 0
-123 -97 -95 0
122 100 52 42 0
-98 115 120 0
-108 110 50 0
-104 -42 29 27 0
32 -26 113 0
39 69 -86 0
-30 47 62 0
6 -1 9 0
-87 -17 14 0
-75 102 91 0
-38 -24 114 0
54 49 -99 0
-36 114 72 0
96 31 -24 0
-37 -93 -88 0
85 68 3 0
100 2 76 0
-11 104 84 0
4 32 -26 0
30 -47 -62 0
101 -86 -78 0
-21 67 105 0
104 -57 -27 0
-90 -94 -118 0
-90 -93 -94 0
-40 63 105 0
-68 -3 116 0
-8 -89 61 0
108 -110 69 0
89 101 -61 0
-70 20 -125 0
-95 -44 17 0
40 -63 -105 0
-124 -80 43 0
-70 -103 -125 0
-31 125 24 0
81 -18 82 0
-85 -68 116 0
-19 104 84 0
-80 37 81 0
-15 -47 -62 0
60 -33 -68 0
-35 113 -48 0
-15 30 -47 0
97 49 95 0
92 123 -96 0
28 114 72 0
-46 41 -36 0
-36 28 114 0
112 21 -105 0
-101 86 112 0
-11 -64 74 0
-19 -115 -120 0
-101 78 112 0
40 -105 -116 0
-52 18 51 0
-16 14 23 0
-18 -44 82 0
8 89 -61 0
-122 -100 -42 0
-71 -106 65 0
54 109 -16 0
16 -14 -23 0
-1 -80 81 0
-76 70 23 0
-122 119 15 0
-47 -109 45 0
19 -98 120 0
22 8 71 0
-90 -93 -118 0
-123 -49 -95 0
41 99 -103 0
-64 77 7 0
5 -53 -25 0
-118 -121 -20 0
-85 -68 -3 0
-100 97 -2 0
47 109 -5 0
6 -123 96 0
70 -20 125 0
-100 -2 -76 0
5 -25 -107 0
-6 -9 -75 0
122 100 42 -102 0
75 -102 -91 0
-22 4 40 0
-69 86 -60 0
-5 53 25 0
89 111 -85 0
-86 -78 -112 0
-51 73 -29 0
104 -29 -57 0
54 109 115 0
9 83 -3 0
52 -18 -51 0
36 -28 -114 0
-32 26 -113 0
39 69 60 0
35 -113 48 0
-96 125 24 0
69 -86 60 0
-22 -8 10 0
-94 -34 -83 0
-1 9 75 0
-66 33 -26 0
37 93 88 0
-88 117 -28 0
70 57 23 0
-73 -87 -66 0
-16 14 -35 0
38 24 -114 0
-109 -115 16 0
-38 82 -24 0
-82 24 -114 0
67 -117 28 0
-54 -49 -79 0
-4 26 -113 0
55 -87 -66 0
60 -25 -68 0
5 -53 -107 0
49 -99 79 0
79 27 38 0
58 -87 -17 0
-84 61 -48 0
-19 98 -115 0
2 98 -55 0
-50 94 34 0
123 97 95 0
-112 67 105 0
-15 30 -62 0
-41 -99 103 0
-83 65 3 0
-47 -109 5 0
-89 -111 85 0
-108 4 40 0
-120 -78 -13 0
-75 91 -72 0
-122 -52 102 0
63 105 116 0
124 80 -43 0
-77 110 -7 0
-75 102 -72 0
62 -39 -56 0
123 97 49 0
70 103 125 0
98 -115 -120 0
43 34 -21 0
111 37 93 0
-50 34 83 0
-58 17 -14 0
-5 25 107 0
19 115 120 0
100 -97 76 0
-118 -121 91 0
101 -86 -112 0
106 -117 -65 0
109 115 -16 0
-11 30 74 0
78 13 32 0
-84 107 -48 0
-47 45 5 0
10 124 80 0
71 106 -117 0
25 33 68 0
-10 -124 -80 0
-78 -13 -32 0
14 23 -35 0

 -52 70 -97 104 -122 0
c 299 povtorov
 23 70 -97 102 104 0
c 295 povtorov
 2 -52 70 -97 104 0
c 288 povtorov
 2 23 -97 102 104 0
c 287 povtorov
 2 -27 70 102 104 0
c 281 povtorov
 2 -52 70 102 104 0
c 274 povtorov
 -29 -52 70 -97 104 0
c 274 povtorov
 70 -97 102 104 -122 0
c 274 povtorov
 2 -52 70 104 -122 0
c 268 povtorov
 2 70 102 104 -122 0
c 268 povtorov
 2 -29 70 102 104 0
c 267 povtorov
 2 23 -29 70 102 0
c 265 povtorov
 23 -52 70 -97 104 0
c 262 povtorov
 2 -29 -52 70 -122 0
c 261 povtorov
 -29 70 -97 102 104 0
c 258 povtorov
 2 -29 -52 70 -97 0
c 256 povtorov
 2 23 -52 70 104 0
c 254 povtorov
 2 -27 -29 -52 70 0
c 254 povtorov
 -27 70 -97 102 104 0
c 253 povtorov
 -29 -52 70 -97 -122 0
c 252 povtorov
 2 -27 70 -97 -122 0
c 249 povtorov
 23 -29 -52 70 -97 0
c 248 povtorov
 2 -27 -29 70 102 0
c 247 povtorov
 23 -52 -97 104 -122 0
c 246 povtorov
 2 23 -29 -52 70 0
c 245 povtorov
 2 -27 70 -97 102 0
c 245 povtorov
 2 -29 70 -97 102 0
c 245 povtorov
 2 23 -27 70 102 0
c 242 povtorov
 -52 70 -97 102 104 0
c 239 povtorov
 -27 -52 70 -97 -122 0
c 238 povtorov
 2 23 -27 -29 102 0
c 238 povtorov
 2 23 -29 -97 102 0
c 237 povtorov
 2 -27 -29 70 -122 0
c 236 povtorov
 2 23 -27 102 104 0
c 235 povtorov
 -27 -29 -52 70 -97 0
c 235 povtorov
 23 -27 -97 102 104 0
c 235 povtorov
 23 -97 102 104 -122 0
c 232 povtorov
 23 -29 70 -97 102 0
c 231 povtorov
 2 70 -97 104 -122 0
c 229 povtorov
 -27 -29 70 -97 102 0
c 228 povtorov
 2 -29 70 102 -122 0
c 227 povtorov
 2 23 -52 104 -122 0
c 227 povtorov
 2 -27 -52 70 -122 0
c 227 povtorov
 2 -27 70 102 -122 0
c 227 povtorov
 23 -27 70 -97 -122 0
c 225 povtorov
 2 23 102 104 -122 0
c 224 povtorov
 23 70 -97 104 -122 0
c 224 povtorov
 2 -27 -52 70 104 0
c 224 povtorov
 2 23 -52 102 104 0
c 223 povtorov
 -27 -29 70 -97 -122 0
c 222 povtorov
 2 23 -52 -97 104 0
c 222 povtorov
 -27 -52 70 -97 104 0
c 220 povtorov
 2 23 -29 -52 -122 0
c 220 povtorov
 23 -27 -29 -97 102 0
c 219 povtorov
 2 -29 -52 70 102 0
c 219 povtorov
 2 23 -27 -52 -122 0
c 218 povtorov
 23 -52 -97 102 104 0
c 217 povtorov
 -27 70 -97 104 -122 0
c 217 povtorov
 2 23 -27 -29 -52 0
c 216 povtorov
 2 -29 -52 70 104 0
c 216 povtorov
 2 23 -27 102 -122 0
c 215 povtorov
 23 -29 -97 102 104 0
c 214 povtorov
 23 -27 70 -97 102 0
c 214 povtorov
 2 23 -27 -97 -122 0
c 212 povtorov
 2 23 -29 102 104 0
c 212 povtorov
 2 23 -27 -97 102 0
c 212 povtorov
 2 23 -27 70 -122 0
c 211 povtorov
 23 -27 -52 -97 104 0
c 206 povtorov
 -29 70 -97 102 -122 0
c 206 povtorov
 2 23 70 104 -122 0
c 205 povtorov
 2 -27 70 104 -122 0
c 204 povtorov
 2 23 -29 -52 -97 0
c 203 povtorov
 -15 38 79 102 104 0
c 203 povtorov
 23 -27 -52 -97 -122 0
c 203 povtorov
 2 23 -29 -52 102 0
c 202 povtorov
 2 -29 70 -97 -122 0
c 202 povtorov
 23 -29 -52 -97 -122 0
c 198 povtorov
 23 -27 -52 70 -97 0
c 197 povtorov
 23 -27 -29 -52 -97 0
c 196 povtorov
 2 23 -97 104 -122 0
c 194 povtorov
 2 23 -27 -29 -122 0
c 194 povtorov
 2 23 -27 -52 102 0
c 192 povtorov
 -29 70 -97 104 -122 0
c 190 povtorov
 23 -29 -52 -97 104 0
c 190 povtorov
 -29 -52 70 -97 102 0
c 189 povtorov
 23 -27 -29 -97 -122 0
c 189 povtorov
 23 -27 -97 102 -122 0
c 189 povtorov
 -27 70 -97 102 -122 0
c 187 povtorov
 2 -27 -52 70 -97 0
c 186 povtorov
 -27 -52 70 -97 102 0
c 186 povtorov
 23 -27 -97 104 -122 0
c 186 povtorov
 2 23 -27 -52 70 0
c 186 povtorov
 2 23 -29 -52 104 0
c 184 povtorov
 2 23 -27 -52 104 0
c 184 povtorov
 23 -29 -52 -97 102 0
c 182 povtorov
 -15 38 -58 102 104 0
c 180 povtorov
 -15 -58 79 102 104 0
c 175 povtorov
 23 -29 -97 102 -122 0
c 175 povtorov
 38 -58 79 102 104 0
c 174 povtorov
 2 23 -29 -97 -122 0
c 172 povtorov
 23 -29 70 -97 -122 0
c 169 povtorov
 2 23 -29 102 -122 0
c 169 povtorov
 2 -27 -52 70 102 0
c 168 povtorov
 2 23 -27 -52 -97 0
c 167 povtorov
 2 23 -27 104 -122 0
c 166 povtorov
 2 -29 70 104 -122 0
c 165 povtorov
 2 23 -29 70 -122 0
c 164 povtorov
 -18 -45 -73 102 104 0
c 160 povtorov
 -18 -45 59 102 104 0
c 159 povtorov
 -45 59 -73 102 104 0
c 159 povtorov
 -15 38 -52 102 104 0
c 158 povtorov
 -15 -29 79 102 104 0
c 158 povtorov
 23 -29 -97 104 -122 0
c 157 povtorov
 -15 79 -100 102 104 0
c 153 povtorov
 23 -27 -52 -97 102 0
c 152 povtorov
 -15 -29 -52 -58 79 0
c 150 povtorov
 38 -52 -58 -100 104 0
c 150 povtorov
 2 23 -29 104 -122 0
c 149 povtorov
 -18 -27 -73 102 104 0
c 149 povtorov
 -15 -29 38 102 104 0
c 147 povtorov
 -57 -58 79 102 104 0
c 146 povtorov
 -18 59 -73 102 104 0
c 146 povtorov
 -15 -57 79 102 104 0
c 146 povtorov
 -15 -52 79 102 104 0
c 145 povtorov
 -18 -27 -45 102 104 0
c 144 povtorov
 -29 38 -52 -58 79 0
c 143 povtorov
 -15 -52 -58 79 104 0
c 143 povtorov
 -15 38 -100 102 104 0
c 141 povtorov
 -18 -73 102 104 -122 0
c 141 povtorov
 -18 -45 -100 102 104 0
c 140 povtorov
 -15 38 -52 -100 104 0
c 140 povtorov
 -15 38 -52 -58 104 0
c 140 povtorov
 -15 -29 38 -52 -58 0
c 140 povtorov
 -29 -58 79 102 104 0
c 140 povtorov
 -29 38 -58 79 102 0
c 139 povtorov
 -15 -29 38 -58 102 0
c 139 povtorov
 -29 38 -58 102 104 0
c 138 povtorov
 -29 -57 -58 79 102 0
c 138 povtorov
 -27 59 -73 102 104 0
c 138 povtorov
 -29 -52 -58 79 -100 0
c 137 povtorov
 -15 -29 38 -52 -100 0
c 137 povtorov
 -29 38 -52 -58 104 0
c 136 povtorov
 -15 -52 79 -100 104 0
c 136 povtorov
 38 -52 -58 102 104 0
c 136 povtorov
 -29 38 -52 -58 -100 0
c 136 povtorov
 38 -57 -58 102 104 0
c 135 povtorov
 -29 38 -57 -58 102 0
c 135 povtorov
 -15 -29 38 -52 -57 0
c 134 povtorov
 -15 -29 38 -52 79 0
c 133 povtorov
 38 -52 -58 79 104 0
c 133 povtorov
 38 -58 -100 102 104 0
c 133 povtorov
 -15 38 -52 79 104 0
c 133 povtorov
 -52 -58 79 -100 104 0
c 132 povtorov
 -15 -29 38 79 102 0
c 132 povtorov
 -15 -29 38 -52 104 0
c 131 povtorov
 -15 -29 -52 79 -100 0
c 131 povtorov
 -15 -29 -57 79 102 0
c 131 povtorov
 -18 -73 -100 102 104 0
c 130 povtorov
 -27 -45 59 102 104 0
c 130 povtorov
 -18 -57 -73 102 104 0
c 130 povtorov
 -15 38 -57 102 104 0
c 130 povtorov
 -18 -45 102 104 -122 0
c 129 povtorov
 -18 -27 -45 102 -122 0
c 129 povtorov
 -15 -29 -52 79 104 0
c 128 povtorov
 -15 -29 -58 79 102 0
c 128 povtorov
 -18 -45 -57 102 104 0
c 128 povtorov
 -15 -29 -52 -57 79 0
c 126 povtorov
 -58 79 -100 102 104 0
c 124 povtorov
 -15 -57 -58 79 -100 0
c 123 povtorov
 -29 38 -52 -58 102 0
c 123 povtorov
 -52 -58 79 102 104 0
c 123 povtorov
 -15 -29 38 -52 102 0
c 122 povtorov
 -18 -27 -57 -73 102 0
c 122 povtorov
 -18 -27 -45 59 102 0
c 121 povtorov
 59 -73 102 104 -122 0
c 121 povtorov
 -18 -27 -45 -73 102 0
c 120 povtorov
 -45 59 102 104 -122 0
c 120 povtorov
 -15 38 -52 -57 104 0
c 118 povtorov
 -27 -45 -57 59 102 0
c 118 povtorov
 -15 -29 38 -57 102 0
c 118 povtorov
 38 -52 -57 -58 104 0
c 117 povtorov
 -29 38 -52 -57 -58 0
c 117 povtorov
 -29 -52 -58 79 104 0
c 116 povtorov
 -57 59 -73 102 104 0
c 116 povtorov
 -18 -27 -45 -57 102 0
c 115 povtorov
 59 -73 -100 104 -122 0
c 114 povtorov
 -27 -57 59 -73 102 0
c 113 povtorov
 -27 -45 59 102 -122 0
c 113 povtorov
 38 -57 -58 79 -100 0
c 112 povtorov
 -15 -52 -57 79 104 0
c 112 povtorov
 -29 -52 -57 -58 79 0
c 111 povtorov
 -15 -29 38 -100 102 0
c 110 povtorov
 -15 38 -58 -100 104 0
c 110 povtorov
 -18 -27 -45 -100 102 0
c 110 povtorov
 -27 -45 59 -73 102 0
c 109 povtorov
 -15 38 -52 -57 -100 0
c 109 povtorov
 -15 -29 -57 79 -100 0
c 109 povtorov
 -45 59 -100 104 -122 0
c 108 povtorov
 -52 -57 -58 79 104 0
c 108 povtorov
 -45 59 -100 102 104 0
c 108 povtorov
 38 -58 79 -100 104 0
c 107 povtorov
 -45 -57 59 102 104 0
c 107 povtorov
 -29 -57 -58 79 -100 0
c 106 povtorov
 -18 -27 -73 102 -122 0
c 106 povtorov
 -15 -58 79 -100 104 0
c 106 povtorov
 -15 -29 79 -100 102 0
c 106 povtorov
 -15 -57 79 -100 104 0
c 106 povtorov
 -15 -29 -52 79 102 0
c 106 povtorov
 38 -52 -57 -58 -100 0
c 105 povtorov
 -27 59 -73 102 -122 0
c 104 povtorov
 -15 38 -57 79 -100 0
c 103 povtorov
 -15 -29 38 -57 -100 0
c 102 povtorov
 -27 59 -73 104 -122 0
c 102 povtorov
 59 -73 -100 102 104 0
c 101 povtorov
 -27 -45 59 104 -122 0
c 100 povtorov
 -15 38 -57 79 102 0
c 100 povtorov
 38 -57 -58 79 102 0
c 100 povtorov
 -29 38 -58 -100 102 0
c 99 povtorov
 -15 -52 -57 79 -100 0
c 99 povtorov
 -18 -27 59 -73 102 0
c 99 povtorov
 -29 -52 -58 79 102 0
c 99 povtorov
 -18 -45 59 104 -122 0
c 99 povtorov
 -18 -27 -45 59 -122 0
c 99 povtorov
 -18 -27 -45 104 -122 0
c 98 povtorov
 -18 -45 -100 104 -122 0
c 98 povtorov
 -27 -45 59 -100 102 0
c 98 povtorov
 -29 38 -57 -58 -100 0
c 98 povtorov
 -15 38 -57 -58 -100 0
c 98 povtorov
 -18 -45 -57 -73 102 0
c 98 povtorov
 -45 -57 59 -100 -122 0
c 98 povtorov
 -52 -57 -58 79 -100 0
c 97 povtorov
 -45 59 -73 104 -122 0
c 97 povtorov
 -18 -73 -100 104 -122 0
c 95 povtorov
 -18 -45 -57 102 -122 0
c 94 povtorov
 -57 59 -73 -100 -122 0
c 93 povtorov
 -15 38 -57 -58 102 0
c 93 povtorov
 -29 -58 79 -100 102 0
c 93 povtorov
 -27 -45 59 -73 -122 0
c 93 povtorov
 -18 59 -73 104 -122 0
c 92 povtorov
 -15 -29 -52 70 79 -97 0
c 92 povtorov
 -18 -27 -45 -73 -122 0
c 92 povtorov
 -18 -27 -57 -73 -122 0
c 91 povtorov
 38 -57 -58 -100 102 0
c 91 povtorov
 -15 38 -57 -100 104 0
c 91 povtorov
 -15 -57 -58 79 102 0
c 91 povtorov
 -18 -27 -45 -100 -122 0
c 91 povtorov
 -27 -45 59 -100 -122 0
c 90 povtorov
 -27 -45 -57 59 -122 0
c 90 povtorov
 -18 -27 -73 -100 -122 0
c 89 povtorov
 -57 -58 79 -100 104 0
c 89 povtorov
 -15 38 -57 -100 102 0
c 89 povtorov
 -29 38 -58 -100 104 0
c 88 povtorov
 -18 -45 59 -100 104 0
c 88 povtorov
 -18 -45 -57 -100 -122 0
c 88 povtorov
 -18 -45 -57 -73 -100 0
c 88 povtorov
 -18 -45 -57 59 102 0
c 88 povtorov
 -15 38 79 -100 104 0
c 88 povtorov
 -18 -45 -57 -100 102 0
c 87 povtorov
 -18 -27 -45 -100 104 0
c 87 povtorov
 -45 -57 59 104 -122 0
c 87 povtorov
 -18 -45 -57 104 -122 0
c 86 povtorov
 -18 -27 -73 -100 102 0
c 86 povtorov
 -18 -45 -73 104 -122 0
c 86 povtorov
 -45 -57 59 -73 -100 0
c 86 povtorov
 -15 -58 70 79 -97 104 0
c 85 povtorov
 -15 -29 38 -58 -100 0
c 85 povtorov
 -18 -27 -73 104 -122 0
c 85 povtorov
 38 -57 -58 -100 104 0
c 85 povtorov
 -18 -27 -45 -57 -100 0
c 85 povtorov
 -15 -57 79 -100 102 0
c 85 povtorov
 2 -15 -29 -52 70 79 0
c 85 povtorov
 -27 -45 -57 59 -100 0
c 84 povtorov
 -15 38 -52 -57 102 0
c 84 povtorov
 -18 -27 -45 -57 -122 0
c 83 povtorov
 -18 -57 -73 -100 102 0
c 83 povtorov
 -18 -45 -57 59 -100 0
c 83 povtorov
 -18 59 -73 -100 104 0
c 83 povtorov
 -15 38 -52 70 -97 104 0
c 82 povtorov
 -18 -57 -73 104 -122 0
c 82 povtorov
 -18 -57 59 -73 -100 0
c 82 povtorov
 -15 -52 -57 79 102 0
c 82 povtorov
 -15 70 79 -97 102 104 0
c 81 povtorov
 -27 -57 59 -73 -122 0
c 81 povtorov
 -15 -29 38 -100 104 0
c 81 povtorov
 -15 -29 79 -100 104 0
c 81 povtorov
 -15 -29 -58 79 -100 0
c 81 povtorov
 -27 59 -73 -100 102 0
c 81 povtorov
 -18 -27 -73 -100 104 0
c 81 povtorov
 -18 -27 -57 -73 -100 0
c 81 povtorov
 -15 38 70 -97 102 104 0
c 80 povtorov
 -18 -57 -73 -100 -122 0
c 80 povtorov
 -27 -57 59 -73 -100 0
c 80 povtorov
 -15 -52 70 79 -97 104 0
c 80 povtorov
 -18 -57 59 -73 102 0
c 80 povtorov
 -15 -52 -58 70 79 -97 0
c 79 povtorov
 -15 38 -52 -57 -58 0
c 79 povtorov
 -45 59 -73 -100 104 0
c 79 povtorov
 38 -52 -57 -58 79 0
c 79 povtorov
 -15 38 -52 -57 79 0
c 79 povtorov
 2 38 -52 -58 70 104 0
c 79 povtorov
 -29 38 -58 79 -100 0
c 79 povtorov
 -29 -52 -58 70 79 -97 0
c 78 povtorov
 38 -52 -57 -58 102 0
c 78 povtorov
 -18 -57 -73 102 -122 0
c 78 povtorov
 -18 -45 -57 -100 104 0
c 78 povtorov
 2 -29 -52 -58 70 79 0
c 78 povtorov
 -15 -52 -57 -58 79 0
c 77 povtorov
 -57 59 -73 102 -122 0
c 76 povtorov
 -45 -57 59 -73 102 0
c 76 povtorov
 2 -15 70 79 -97 104 0
c 76 povtorov
 -15 38 -58 70 -97 104 0
c 76 povtorov
 -52 -57 -58 79 102 0
c 76 povtorov
 2 38 -58 70 102 104 0
c 76 povtorov
 2 -15 38 70 -97 104 0
c 76 povtorov
 23 -29 38 -52 -58 -97 0
c 75 povtorov
 2 -58 70 79 102 104 0
c 75 povtorov
 2 -52 -58 70 79 104 0
c 75 povtorov
 2 23 38 -58 -97 104 0
c 75 povtorov
 2 -18 -45 70 102 104 0
c 75 povtorov
 -27 59 -73 -100 -122 0
c 75 povtorov
 -18 -45 -73 -100 104 0
c 75 povtorov
 -15 -29 38 79 -100 0
c 74 povtorov
 -45 59 70 -97 102 104 0
c 74 povtorov
 2 -15 70 79 102 104 0
c 74 povtorov
 -18 -27 59 -73 -122 0
c 74 povtorov
 2 38 -58 70 -97 104 0
c 73 povtorov
 -18 -27 -45 59 -100 0
c 72 povtorov
 2 -15 23 38 102 104 0
c 72 povtorov
 2 -15 38 -52 70 104 0
c 72 povtorov
 2 23 -58 79 102 104 0
c 72 povtorov
 -18 -57 -73 -100 104 0
c 72 povtorov
 2 -15 38 70 102 104 0
c 72 povtorov
 38 -58 70 -97 102 104 0
c 72 povtorov
 2 -15 -29 38 -52 70 0
c 71 povtorov
 -27 -45 59 -73 -100 0
c 71 povtorov
 -57 59 -73 104 -122 0
c 71 povtorov
 -15 23 38 -97 102 104 0
c 71 povtorov
 -15 23 -29 38 -52 -97 0
c 71 povtorov
 -18 -45 70 -97 102 104 0
c 71 povtorov
 -58 70 79 -97 102 104 0
c 70 povtorov
 2 -18 70 -73 102 104 0
c 70 povtorov
 38 -52 -58 70 -97 104 0
c 70 povtorov
 -45 -57 59 -100 104 0
c 70 povtorov
 -52 -58 70 79 -97 104 0
c 70 povtorov
 -15 23 79 -97 102 104 0
c 69 povtorov
 23 -29 -52 -58 79 -97 0
c 69 povtorov
 2 -15 38 70 79 102 0
c 69 povtorov
 2 -15 38 70 79 104 0
c 69 povtorov
 -27 59 -73 -100 104 0
c 69 povtorov
 -57 59 -73 -100 104 0
c 69 povtorov
 2 -29 38 -52 -58 70 0
c 69 povtorov
 -29 38 -52 -58 70 -97 0
c 68 povtorov
 2 23 38 -58 102 104 0
c 68 povtorov
 2 -15 70 79 -97 102 0
c 68 povtorov
 2 -15 -58 70 79 104 0
c 67 povtorov
 -18 -57 59 -73 -122 0
c 67 povtorov
 -15 -29 -58 70 79 -97 0
c 67 povtorov
 -15 -29 38 70 -97 102 0
c 67 povtorov
 -15 23 38 -52 -97 104 0
c 67 povtorov
 -15 -29 38 -58 70 -97 0
c 66 povtorov
 -15 23 38 70 -97 104 0
c 66 povtorov
 -29 38 -58 70 -97 104 0
c 66 povtorov
 23 -29 -58 79 -97 102 0
c 66 povtorov
 -27 -45 59 -100 104 0
c 66 povtorov
 -29 -58 79 -100 104 0
c 66 povtorov
 2 -15 -58 70 79 102 0
c 66 povtorov
 -18 70 -73 -97 102 104 0
c 65 povtorov
 23 -58 79 -97 102 104 0
c 65 povtorov
 -15 38 70 79 -97 104 0
c 64 povtorov
 -45 -57 59 -100 102 0
c 64 povtorov
 -57 59 -73 -100 102 0
c 64 povtorov
 -45 -57 59 102 -122 0
c 64 povtorov
 59 70 -73 -97 102 104 0
c 64 povtorov
 2 -18 -45 70 -73 102 0
c 64 povtorov
 23 38 -58 70 -97 104 0
c 64 povtorov
 2 -45 59 70 102 104 0
c 64 povtorov
 2 23 -29 38 -58 102 0
c 64 povtorov
 -45 59 70 -73 -97 104 0
c 63 povtorov
 2 -15 23 38 -97 104 0
c 63 povtorov
 2 23 -45 59 102 104 0
c 63 povtorov
 2 23 38 -58 79 104 0
c 63 povtorov
 2 -15 -29 70 79 102 0
c 63 povtorov
 2 -15 23 38 70 104 0
c 63 povtorov
 -15 -58 70 79 -97 102 0
c 63 povtorov
 -29 -58 70 79 -97 102 0
c 63 povtorov
 2 -29 38 -58 70 102 0
c 63 povtorov
 2 -15 38 70 -97 102 0
c 62 povtorov
 2 -18 23 -27 -73 102 0
c 62 povtorov
 -15 23 70 79 -97 104 0
c 62 povtorov
 2 38 -58 70 79 104 0
c 62 povtorov
 38 -58 70 79 -97 104 0
c 62 povtorov
 2 -15 23 -29 38 102 0
c 62 povtorov
 -18 23 -73 -97 102 104 0
c 61 povtorov
 -57 -58 79 -100 102 0
c 61 povtorov
 23 -52 -58 79 -97 104 0
c 61 povtorov
 2 -15 -52 70 79 -97 0
c 61 povtorov
 2 -15 23 38 -97 102 0
c 61 povtorov
 2 -27 -45 59 70 102 0
c 61 povtorov
 23 -58 70 79 -97 104 0
c 61 povtorov
 -2 -23 54 58 66 73 -120 0
c 61 povtorov
 23 -29 38 -58 -97 102 0
c 61 povtorov
 2 23 38 -58 70 104 0
c 61 povtorov
 2 -15 -29 38 70 102 0
c 60 povtorov
 2 -15 -29 70 79 -97 0
c 60 povtorov
 2 23 -52 -58 79 104 0
c 60 povtorov
 -18 -27 -45 -73 -100 0
c 60 povtorov
 -18 -45 -57 59 -122 0
c 60 povtorov
 2 -18 23 70 -73 102 0
c 60 povtorov
 2 -15 23 70 79 102 0
c 59 povtorov
 -18 -45 70 -73 -97 102 0
c 59 povtorov
 2 -15 23 38 79 102 0
c 59 povtorov
 2 23 -29 38 -52 -58 0
c 59 povtorov
 2 -15 38 -58 70 104 0
c 59 povtorov
 -15 23 -29 -52 79 -97 0
c 59 povtorov
 2 -18 23 -45 102 104 0
c 59 povtorov
 2 -15 23 38 70 102 0
c 58 povtorov
 2 -15 -52 70 79 104 0
c 58 povtorov
 -15 38 -58 70 -97 102 0
c 58 povtorov
 2 38 -58 70 79 102 0
c 58 povtorov
 -15 23 -52 70 79 -97 0
c 58 povtorov
 2 23 -58 79 -97 104 0
c 58 povtorov
 2 -58 70 79 -97 104 0
c 58 povtorov
 -15 23 70 79 -97 102 0
c 58 povtorov
 -2 -17 -23 54 66 73 -120 0
c 58 povtorov
 2 -18 70 -73 -97 102 0
c 58 povtorov
 2 -15 23 -29 38 -97 0
c 58 povtorov
 2 23 38 -58 -97 102 0
c 58 povtorov
 2 -15 23 -29 -52 79 0
c 57 povtorov
 -15 -29 38 -52 70 -97 0
c 57 povtorov
 -15 -29 70 79 -97 102 0
c 57 povtorov
 2 -15 38 -52 70 -97 0
c 57 povtorov
 2 59 70 -73 -97 102 0
c 57 povtorov
 -15 38 70 79 -97 102 0
c 57 povtorov
 23 38 -52 -58 -97 104 0
c 57 povtorov
 -18 23 -45 -97 102 104 0
c 57 povtorov
 -18 -27 -45 70 -97 102 0
c 57 povtorov
 -27 -45 59 70 -97 -122 0
c 57 povtorov
 2 -15 38 -52 70 79 0
c 56 povtorov
 -15 23 -58 79 -97 102 0
c 56 povtorov
 2 -15 23 -29 38 70 0
c 56 povtorov
 2 -15 23 38 -58 104 0
c 56 povtorov
 2 23 -29 -52 -58 79 0
c 56 povtorov
 2 23 38 -52 -58 70 0
c 56 povtorov
 23 -45 59 -97 102 104 0
c 56 povtorov
 2 23 38 -52 -58 104 0
c 56 povtorov
 -15 -29 38 70 -97 104 0
c 56 povtorov
 -18 23 -27 -45 -97 102 0
c 56 povtorov
 -29 38 -58 70 -97 102 0
c 56 povtorov
 -18 -45 59 70 -97 104 0
c 56 povtorov
 2 -15 38 -58 70 102 0
c 56 povtorov
 -45 59 70 -73 -97 102 0
c 56 povtorov
 2 -15 23 79 102 104 0
c 56 povtorov
 -15 23 38 70 -97 102 0
c 56 povtorov
 2 23 -27 -45 59 102 0
c 56 povtorov
 2 -15 23 -29 38 -52 0
c 55 povtorov
 2 -15 -52 -58 70 79 0
c 55 povtorov
 -18 -27 59 -73 -100 0
c 55 povtorov
 -15 23 -52 79 -97 104 0
c 55 povtorov
 2 -18 70 -73 -97 104 0
c 55 povtorov
 -45 -57 59 -73 -122 0
c 55 povtorov
 23 38 -58 70 -97 102 0
c 55 povtorov
 2 59 70 -73 102 104 0
c 55 povtorov
 2 -18 23 -27 -45 102 0
c 55 povtorov
 -15 38 -52 70 79 -97 0
c 55 povtorov
 2 23 38 -58 79 102 0
c 55 povtorov
 -27 -45 59 70 -97 102 0
c 55 povtorov
 17 -41 -59 -70 -79 97 -118 0
c 55 povtorov
 -15 -29 70 79 -97 104 0
c 54 povtorov
 2 -15 23 -52 70 79 0
c 54 povtorov
 2 23 -29 38 -58 -97 0
c 54 povtorov
 2 38 -52 -58 70 -97 0
c 54 povtorov
 59 70 -73 -97 104 -122 0
c 54 povtorov
 2 59 70 -73 -97 104 0
c 54 povtorov
 -18 -45 -57 -73 -122 0
c 54 povtorov
 17 -44 -59 -70 -79 97 -118 0
c 54 povtorov
 2 -29 -58 70 79 102 0
c 54 povtorov
 2 -18 23 -73 102 104 0
c 54 povtorov
 2 -18 23 -45 70 102 0
c 54 povtorov
 -15 23 38 79 -97 102 0
c 54 povtorov
 2 -15 -29 -58 70 79 0
c 54 povtorov
 23 38 -58 -97 102 104 0
c 54 povtorov
 -15 23 -29 38 -97 102 0
c 53 povtorov
 5 -17 -23 29 51 54 66 0
c 53 povtorov
 2 38 -58 70 -97 102 0
c 53 povtorov
 2 -15 23 -52 79 104 0
c 53 povtorov
 -18 -27 -45 70 -97 -122 0
c 53 povtorov
 12 15 -35 39 -61 -64 -104 0
c 53 povtorov
 2 23 -29 -58 79 102 0
c 53 povtorov
 23 59 -73 -97 102 104 0
c 53 povtorov
 -15 23 -58 79 -97 104 0
c 53 povtorov
 2 -15 23 38 -52 104 0
c 53 povtorov
 2 -45 59 70 -73 102 0
c 52 povtorov
 23 -27 -45 59 -97 102 0
c 52 povtorov
 15 -16 45 74 98 -104 -120 0
c 52 povtorov
 -45 59 70 -97 104 -122 0
c 52 povtorov
 23 38 -58 79 -97 104 0
c 52 povtorov
 2 -18 59 70 -73 102 0
c 52 povtorov
 -15 23 -29 38 70 -97 0
c 52 povtorov
 -15 23 38 -58 -97 102 0
c 52 povtorov
 2 -15 23 38 -58 102 0
c 52 povtorov
 2 -18 23 -27 -45 -122 0
c 52 povtorov
 2 -45 59 70 -97 104 0
c 52 povtorov
 23 -29 38 -58 70 -97 0
c 51 povtorov
 23 -27 59 -73 -97 102 0
c 51 povtorov
 2 -15 23 79 -97 104 0
c 51 povtorov
 2 -15 23 -29 79 102 0
c 51 povtorov
 2 -18 -27 70 -73 102 0
c 51 povtorov
 2 -15 23 -58 79 104 0
c 51 povtorov
 2 -18 -27 -45 70 102 0
c 51 povtorov
 2 -15 -29 38 70 104 0
c 51 povtorov
 2 -15 -29 38 70 79 0
c 50 povtorov
 2 -15 38 -52 70 102 0
c 50 povtorov
 2 -29 38 -58 70 104 0
c 50 povtorov
 2 -27 59 70 -73 102 0
c 50 povtorov
 2 23 -27 59 -73 102 0
c 50 povtorov
 2 -15 23 38 -52 70 0
c 50 povtorov
 -15 23 -29 38 -58 -97 0
c 50 povtorov
 23 59 70 -73 -97 102 0
c 50 povtorov
 -18 -27 -45 70 -97 104 0
c 50 povtorov
 -18 23 -27 -45 -97 -122 0
c 50 povtorov
 2 -15 -29 38 70 -97 0
c 50 povtorov
 -15 23 -29 79 -97 102 0
c 50 povtorov
 -18 70 -73 -97 104 -122 0
c 50 povtorov
 2 -18 -45 70 -97 104 0
c 50 povtorov